p cnf 7230 15
-2020 -3728 4309 0
2020 -4309 0
-3734 4317 0
4316 -4317 0
3734 -4316 0
4314 4315 0
3732 -4315 0
-3732 -4314 0
-4311 4313 0
4312 -4313 0
4310 -4312 0
-3730 4311 0
3730 -4310 0
-4308 4309 0
4308 -4309 0
